4 
5  35 55 
6  11 26 41 56 
7  11 26 41 56 
8  11 26 41 56 
9  11 26 39 54 
10  09 24 39 54 
11  09 24 39 54 
12  09 24 39 54 
13  09 25 41 56 
14  11 26 42 56 
15  11 26 39 54 
16  09 24 39 54 
17  09 24 39 54 
18  09 24 39 56 
19  11 25 39 54 
20  09 24 
21 
